523,188
829,429
385,360
317,670
893,194
718,520
1135,637
802,494
764,662
782,93
618,469
765,939
441,284
751,850
1001,243
918,443
521,325
850,529
536,511
593,285
838,-79
491,216
829,554
387,555
947,213
436,887
681,496
567,369
861,406
586,219
504,378
317,670
838,891
681,-44
681,946
396,314
524,891
1020,652
